NAME: random-50-5738
TYPE: TSP
COMMENT: size=50 seed=5738
DIMENSION: 102
EDGE_WEIGHT_TYPE: EUC_2D
NODE_COORD_SECTION
+0 566 924
-0 566 924
+1 461 104
-1 429 899
+2 815 381
-2 320 710
+3 200 890
-3 424 981
+4 729 534
-4 520 855
+5 49 542
-5 29 180
+6 95 673
-6 93 620
+7 819 349
-7 305 257
+8 121 62
-8 499 853
+9 892 982
-9 460 786
+10 847 797
-10 572 634
+11 444 11
-11 536 986
+12 264 378
-12 232 487
+13 996 353
-13 517 735
+14 735 598
-14 741 905
+15 906 90
-15 748 702
+16 471 916
-16 57 664
+17 878 873
-17 93 990
+18 547 373
-18 137 124
+19 341 879
-19 907 629
+20 620 179
-20 325 88
+21 192 946
-21 562 338
+22 940 518
-22 58 995
+23 632 501
-23 999 170
+24 900 990
-24 629 471
+25 37 438
-25 542 183
+26 452 44
-26 838 703
+27 270 732
-27 235 907
+28 56 333
-28 135 267
+29 144 122
-29 37 100
+30 146 41
-30 373 985
+31 872 800
-31 887 868
+32 489 122
-32 613 943
+33 802 653
-33 235 970
+34 961 94
-34 455 341
+35 678 424
-35 67 116
+36 234 805
-36 309 175
+37 668 887
-37 22 766
+38 329 960
-38 395 904
+39 913 688
-39 688 612
+40 740 177
-40 243 858
+41 830 441
-41 151 214
+42 16 54
-42 244 365
+43 278 934
-43 543 308
+44 456 917
-44 803 922
+45 895 181
-45 9 567
+46 153 85
-46 395 25
+47 329 427
-47 784 143
+48 515 193
-48 211 248
+49 670 508
-49 662 572
+50 481 947
-50 76 276
PRECEDENCE_SECTION
+0 -0
+1 -1
+2 -2
+3 -3
+4 -4
+5 -5
+6 -6
+7 -7
+8 -8
+9 -9
+10 -10
+11 -11
+12 -12
+13 -13
+14 -14
+15 -15
+16 -16
+17 -17
+18 -18
+19 -19
+20 -20
+21 -21
+22 -22
+23 -23
+24 -24
+25 -25
+26 -26
+27 -27
+28 -28
+29 -29
+30 -30
+31 -31
+32 -32
+33 -33
+34 -34
+35 -35
+36 -36
+37 -37
+38 -38
+39 -39
+40 -40
+41 -41
+42 -42
+43 -43
+44 -44
+45 -45
+46 -46
+47 -47
+48 -48
+49 -49
+50 -50
EOF
